
Welcome to IBM(R) ILOG(R) CPLEX(R) Interactive Optimizer 22.1.1.0
  with Simplex, Mixed Integer & Barrier Optimizers
5725-A06 5725-A29 5724-Y48 5724-Y49 5724-Y54 5724-Y55 5655-Y21
Copyright IBM Corp. 1988, 2022.  All Rights Reserved.

Type 'help' for a list of available commands.
Type 'help' followed by a command name for more
information on commands.

CPLEX> Selected objective sense:  MINIMIZE
Selected objective  name:  00000000
Selected RHS        name:  RHS1
Selected bound      name:  BOUND
Problem 'ee.mps' read.
Read time = 0.03 sec. (3.17 ticks)
CPLEX> New value for time limit in seconds: 7200
CPLEX> New value for parallel optimization mode: -1
CPLEX> New value for default parallel thread count: 40
CPLEX> New value for mixed integer optimality gap tolerance: 1e-13
CPLEX> Version identifier: 22.1.1.0 | 2022-11-28 | 9160aff4d
CPXPARAM_Threads                                 40
CPXPARAM_Parallel                                -1
CPXPARAM_TimeLimit                               7200
CPXPARAM_MIP_Tolerances_MIPGap                   1e-13
Found incumbent of value 0.000000 after 0.00 sec. (0.31 ticks)
Tried aggregator 3 times.
MIP Presolve eliminated 755 rows and 3849 columns.
MIP Presolve modified 5787 coefficients.
Aggregator did 629 substitutions.
Reduced MIP has 3145 rows, 6844 columns, and 24812 nonzeros.
Reduced MIP has 6844 binaries, 0 generals, 0 SOSs, and 0 indicators.
Presolve time = 0.07 sec. (75.19 ticks)
Probing fixed 52 vars, tightened 0 bounds.
Probing time = 0.06 sec. (24.39 ticks)
Tried aggregator 2 times.
Detecting symmetries...
MIP Presolve eliminated 9 rows and 62 columns.
Aggregator did 11 substitutions.
Reduced MIP has 3125 rows, 6768 columns, and 24532 nonzeros.
Reduced MIP has 6768 binaries, 0 generals, 0 SOSs, and 0 indicators.
Presolve time = 0.04 sec. (43.41 ticks)
Probing time = 0.03 sec. (8.32 ticks)
Clique table members: 16179.
MIP emphasis: balance optimality and feasibility.
MIP search method: dynamic search.
Parallel mode: opportunistic, using up to 40 threads.
Root relaxation solution time = 0.05 sec. (46.77 ticks)

        Nodes                                         Cuts/
   Node  Left     Objective  IInf  Best Integer    Best Bound    ItCnt     Gap

*     0+    0                            0.0000  -1.54000e+13              --- 
*     0+    0                      -6.00000e+12  -1.54000e+13           156.67%
*     0+    0                      -7.20000e+12  -1.54000e+13           113.89%
      0     0  -1.53900e+13    44  -7.20000e+12  -1.53900e+13     1276  113.75%
*     0+    0                      -1.53900e+13  -1.53900e+13             0.00%
*     0+    0                      -1.53900e+13  -1.53900e+13             0.00%
      0     0  -1.53900e+13   100  -1.53900e+13      Cuts: 65     1606    0.00%
*     0+    0                      -1.53900e+13  -1.53900e+13             0.00%
      0     0  -1.53900e+13   125  -1.53900e+13      Cuts: 38     1791    0.00%
*     0+    0                      -1.53900e+13  -1.53900e+13             0.00%
*     0+    0                      -1.53900e+13  -1.53900e+13             0.00%
      0     2  -1.53900e+13    85  -1.53900e+13  -1.53900e+13     1795    0.00%
Elapsed time = 1.59 sec. (864.24 ticks, tree = 0.02 MB, solutions = 8)
    814   147  -1.53900e+13   117  -1.53900e+13  -1.53900e+13    21447    0.00%
   1341   544  -1.53900e+13    23  -1.53900e+13  -1.53900e+13    85911    0.00%
   2200   691        cutoff        -1.53900e+13  -1.53900e+13   113525    0.00%
   3067   703        cutoff        -1.53900e+13  -1.53900e+13   115418    0.00%
   3898   884  -1.53900e+13   180  -1.53900e+13  -1.53900e+13   153544    0.00%
   4622  1021        cutoff        -1.53900e+13  -1.53900e+13   186133    0.00%
   5304  1080  -1.53900e+13   246  -1.53900e+13  -1.53900e+13   197113    0.00%
   5888  1345  -1.53900e+13   201  -1.53900e+13  -1.53900e+13   250147    0.00%
   6527  2583  -1.53900e+13   104  -1.53900e+13  -1.53900e+13   586399    0.00%
  10726  2603  -1.53900e+13   127  -1.53900e+13  -1.53900e+13   596281    0.00%
Elapsed time = 7.75 sec. (3966.76 ticks, tree = 25.76 MB, solutions = 25)
  14308  3090  -1.53900e+13   180  -1.53900e+13  -1.53900e+13   758943    0.00%

Performing restart 1

Repeating presolve.
Tried aggregator 3 times.
MIP Presolve eliminated 878 rows and 2771 columns.
MIP Presolve added 10 rows and 0 columns.
MIP Presolve modified 1758 coefficients.
Aggregator did 466 substitutions.
Reduced MIP has 1781 rows, 3470 columns, and 12490 nonzeros.
Reduced MIP has 3470 binaries, 0 generals, 0 SOSs, and 0 indicators.
Presolve time = 0.07 sec. (61.93 ticks)
Tried aggregator 2 times.
MIP Presolve eliminated 38 rows and 56 columns.
Aggregator did 4 substitutions.
Reduced MIP has 1739 rows, 3409 columns, and 12256 nonzeros.
Reduced MIP has 3409 binaries, 0 generals, 0 SOSs, and 0 indicators.
Presolve time = 0.03 sec. (20.97 ticks)
Tried aggregator 1 time.
MIP Presolve eliminated 2 rows and 1 columns.
Reduced MIP has 1737 rows, 3408 columns, and 12250 nonzeros.
Reduced MIP has 3408 binaries, 0 generals, 0 SOSs, and 0 indicators.
Presolve time = 0.03 sec. (20.52 ticks)
Represolve time = 0.26 sec. (153.73 ticks)
  15493     0  -1.53900e+13   202  -1.53900e+13      Cuts: 22  1220027    0.00%
  15493     0  -1.53900e+13   239  -1.53900e+13      Cuts: 41  1220238    0.00%
  15493     0  -1.53900e+13   209  -1.53900e+13      Cuts: 46  1220410    0.00%
  15493     0  -1.53900e+13   158  -1.53900e+13      Cuts: 37  1220510    0.00%
  15493     0  -1.53900e+13   175  -1.53900e+13      Cuts: 22  1220593    0.00%
  15493     0  -1.53900e+13   186  -1.53900e+13      Cuts: 14  1220631    0.00%
  15493     0  -1.53900e+13   225  -1.53900e+13      Cuts: 10  1220709    0.00%
  15493     0  -1.53900e+13   190  -1.53900e+13      Cuts: 35  1220757    0.00%
  15493     0  -1.53900e+13   205  -1.53900e+13      Cuts: 10  1220786    0.00%
  15493     0  -1.53900e+13   237  -1.53900e+13  ZeroHalf: 10  1220817    0.00%
  15493     0  -1.53900e+13   264  -1.53900e+13      Cuts: 13  1220851    0.00%
  15493     0  -1.53900e+13   213  -1.53900e+13      Cuts: 27  1220898    0.00%
  15493     0  -1.53900e+13   227  -1.53900e+13      Cuts: 15  1220914    0.00%
  15493     0  -1.53900e+13   244  -1.53900e+13      Cuts: 19  1220951    0.00%
  15493     0  -1.53900e+13   214  -1.53900e+13      Cuts: 10  1220987    0.00%
  15493     0  -1.53900e+13   258  -1.53900e+13   ZeroHalf: 7  1221029    0.00%
  15493     5        cutoff        -1.53900e+13  -1.53900e+13  1222861    0.00%

GUB cover cuts applied:  1
Clique cuts applied:  4
Cover cuts applied:  192
Flow cuts applied:  2
Mixed integer rounding cuts applied:  6
Zero-half cuts applied:  46
Gomory fractional cuts applied:  8

Root node processing (before b&c):
  Real time             =    1.10 sec. (863.76 ticks)
Parallel b&c, 40 threads:
  Real time             =   10.79 sec. (6840.34 ticks)
  Sync time (average)   =    1.28 sec.
  Wait time (average)   =    0.08 sec.
                          ------------
Total (root+branch&cut) =   11.89 sec. (7704.10 ticks)

Solution pool: 25 solutions saved.

MIP - Integer optimal solution:  Objective = -1.5389999689e+13
Solution time =   12.00 sec.  Iterations = 1223619  Nodes = 15552
Deterministic time = 7704.13 ticks  (642.14 ticks/sec)

CPLEX> Solution 'p26' written to file 'ee.sol'.
CPLEX> 